NAME : in_house_7_6
TYPE : TSP
DIMENSION : 7
EDGE_WEIGHT_TYPE : EXPLICIT
EDGE_WEIGHT_FORMAT : UPPER_ROW
COMMENT : INVERSION_SHIFT=1
EDGE_WEIGHT_SECTION
8
49
40
20
41
37
23
32
19
31
15
38
47
42
6
17
42
28
2
37
25
